NAME : instance_1
COMMENT : Converted from simplified format
TYPE : CVRP
DIMENSION : 8
EDGE_WEIGHT_TYPE : EUC_2D
CAPACITY : 21
NODE_COORD_SECTION
1 0 0
2 65 0
3 99 19
4 17 44
5 37 9
6 36 34
7 82 88
8 1 52
DEMAND_SECTION
1 0
2 9
3 1
4 7
5 7
6 5
7 3
8 10
DEPOT_SECTION
1
EOF
